p wcnf 151 235 4
4 1 0
4 -2 0
4 7 8 9 0
4 3 -58 0
4 1 -58 0
4 -3 -59 0
4 -1 -59 0
4 58 59 -57 0
4 4 -60 0
4 2 -60 0
4 60 -57 0
4 57 -7 0
4 1 -62 0
4 -3 -62 0
4 62 -61 0
4 4 -63 0
4 -2 -63 0
4 63 -61 0
4 61 -8 0
4 1 -65 0
4 -3 -65 0
4 65 -64 0
4 4 -66 0
4 -2 -66 0
4 66 -64 0
4 64 -9 0
4 10 11 12 0
4 5 -68 0
4 3 -68 0
4 -5 -69 0
4 -3 -69 0
4 68 69 -67 0
4 6 -70 0
4 4 -70 0
4 70 -67 0
4 67 -10 0
4 3 -72 0
4 -5 -72 0
4 72 -71 0
4 6 -73 0
4 -4 -73 0
4 73 -71 0
4 71 -11 0
4 3 -75 0
4 -5 -75 0
4 75 -74 0
4 6 -76 0
4 -4 -76 0
4 76 -74 0
4 74 -12 0
4 14 0
4 17 0
4 -13 0
4 -15 0
4 -16 0
4 -18 0
4 -19 0
4 -20 0
4 37 0
4 41 0
4 49 0
4 53 0
4 -22 0
4 -23 0
4 -24 0
4 46 -77 0
4 33 -77 0
4 -46 -78 0
4 -33 -78 0
4 13 10 77 78 0
4 -13 -79 0
4 -10 -79 0
4 45 -80 0
4 33 -80 0
4 -45 -81 0
4 -33 -81 0
4 79 80 81 0
4 21 -82 0
4 26 -82 0
4 -21 -83 0
4 -26 -83 0
4 13 82 83 0
4 21 -84 0
4 25 -84 0
4 -21 -85 0
4 -25 -85 0
4 84 85 -13 0
4 47 -86 0
4 34 -86 0
4 -47 -87 0
4 -34 -87 0
4 13 10 86 87 0
4 -13 -88 0
4 -10 -88 0
4 46 -89 0
4 34 -89 0
4 -46 -90 0
4 -34 -90 0
4 88 89 90 0
4 22 -91 0
4 27 -91 0
4 -22 -92 0
4 -27 -92 0
4 13 91 92 0
4 22 -93 0
4 26 -93 0
4 -22 -94 0
4 -26 -94 0
4 93 94 -13 0
4 48 -95 0
4 35 -95 0
4 -48 -96 0
4 -35 -96 0
4 13 10 95 96 0
4 -13 -97 0
4 -10 -97 0
4 47 -98 0
4 35 -98 0
4 -47 -99 0
4 -35 -99 0
4 97 98 99 0
4 23 -100 0
4 28 -100 0
4 -23 -101 0
4 -28 -101 0
4 13 100 101 0
4 23 -102 0
4 27 -102 0
4 -23 -103 0
4 -27 -103 0
4 102 103 -13 0
4 -10 -17 -107 0
4 107 -104 0
4 -14 -21 -108 0
4 108 -104 0
4 37 -105 0
4 53 -105 0
4 -37 -106 0
4 -53 -106 0
4 104 105 106 -17 0
4 10 -109 0
4 17 -109 0
4 11 -110 0
4 18 -110 0
4 12 -111 0
4 19 -111 0
4 13 -112 0
4 20 -112 0
4 -54 -113 0
4 -49 -41 -115 0
4 115 -113 0
4 54 -114 0
4 49 -114 0
4 41 -114 0
4 17 10 13 109 110 111 112 113 114 0
4 53 -116 0
4 49 -116 0
4 -53 -117 0
4 -49 -117 0
4 10 116 117 -17 0
4 53 -118 0
4 41 -118 0
4 -53 -119 0
4 -41 -119 0
4 17 118 119 -10 0
4 -10 -17 -123 0
4 123 -120 0
4 -14 -21 -124 0
4 124 -120 0
4 38 -121 0
4 54 -121 0
4 -38 -122 0
4 -54 -122 0
4 120 121 122 -17 0
4 10 -125 0
4 17 -125 0
4 11 -126 0
4 18 -126 0
4 12 -127 0
4 19 -127 0
4 13 -128 0
4 20 -128 0
4 -55 -129 0
4 -50 -42 -131 0
4 131 -129 0
4 55 -130 0
4 50 -130 0
4 42 -130 0
4 17 10 13 125 126 127 128 129 130 0
4 54 -132 0
4 50 -132 0
4 -54 -133 0
4 -50 -133 0
4 10 132 133 -17 0
4 54 -134 0
4 42 -134 0
4 -54 -135 0
4 -42 -135 0
4 17 134 135 -10 0
4 -10 -17 -139 0
4 139 -136 0
4 -14 -21 -140 0
4 140 -136 0
4 39 -137 0
4 55 -137 0
4 -39 -138 0
4 -55 -138 0
4 136 137 138 -17 0
4 10 -141 0
4 17 -141 0
4 11 -142 0
4 18 -142 0
4 12 -143 0
4 19 -143 0
4 13 -144 0
4 20 -144 0
4 -56 -145 0
4 -51 -43 -147 0
4 147 -145 0
4 56 -146 0
4 51 -146 0
4 43 -146 0
4 17 10 13 141 142 143 144 145 146 0
4 55 -148 0
4 51 -148 0
4 -55 -149 0
4 -51 -149 0
4 10 148 149 -17 0
4 55 -150 0
4 43 -150 0
4 -55 -151 0
4 -43 -151 0
4 17 150 151 -10 0
4 -54 0
4 -56 0
-10 54 0
10 56 0